N = 11;
H = 5;
T = 2;

avail = array3d(1..N, 1..H, 1..T, [4, 10, 8, 8, 6, 2, 7, 7, 1, 2, 4, 5, 4, 9, 7, 1, 8, 3, 1, 7, 6, 1, 0, 0, 5, 10, 6, 1, 1, 4, 0, 0, 9, 8, 0, 7, 9, 6, 2, 8, 4, 2, 1, 5, 3, 2, 4, 2, 9, 1, 5, 7, 4, 9, 4, 2, 0, 6, 10, 9, 7, 2, 9, 1, 1, 6, 8, 6, 2, 2, 6, 6, 7, 7, 5, 6, 6, 3, 9, 10, 10, 5, 0, 8, 8, 5, 8, 3, 10, 8, 4, 2, 2, 0, 6, 3, 8, 6, 8, 1, 8, 3, 3, 5, 10, 5, 8, 0, 5, 7]);

r = array2d(1..H, 1..T, [3, 4, 0, 5, 3, 3, 5, 1, 0, 3]);
